(set-logic QF_BV)
(declare-fun _substvar_55_ () (_ BitVec 48))
(declare-fun _substvar_50_ () (_ BitVec 48))
(declare-fun _substvar_51_ () (_ BitVec 16))
(declare-fun _substvar_47_ () (_ BitVec 16))
(declare-fun _substvar_54_ () (_ BitVec 48))
(declare-fun _substvar_43_ () (_ BitVec 48))
(declare-fun _substvar_45_ () (_ BitVec 48))
(declare-fun _substvar_44_ () (_ BitVec 48))
(assert (= _substvar_55_ (concat (_ bv0 32) _substvar_51_)))
(assert (= _substvar_44_ (concat (_ bv0 32) _substvar_47_)))
(assert (= _substvar_50_ (bvmul _substvar_44_ _substvar_45_)))
(assert (= (_ bv0 48) (bvmul _substvar_55_ _substvar_50_)))
(assert (= _substvar_54_ (bvmul _substvar_55_ _substvar_44_)))
(assert (= _substvar_43_ (bvmul _substvar_45_ _substvar_54_)))
(assert (= false (= (_ bv0 48) _substvar_43_)))
(check-sat)
(exit)
